55 183 135 56 139 2 52 66 43 150 20 159 88 163 36 96 148 101 47 172 179 85 151 72 6 89 105 17 132 156 128 113 199 117 25 190 86 164 126 11 67 134 80 165 79 144 35 130 4 91 189 178 142 122 167 81 1 38 116 73 21 8 3 152 87 32 129 110 60 62 133 77 61 188 33 120 97 104 181 119 42 28 26 174 193 102 171 124 131 71 10 127 176 23 95 111 82 84 160 83 34 109 68 93 146 39 118 114 140 19 182 138 58 57 48 196 141 195 92 78 74 41 154 49 197 136 16 108 14 94 50 24 40 158 69 98 9 192 103 123 37 166 90 161 0 18 45 145 157 75 107 180 76 64 15 70 5 99 177 13 185 22 153 125 187 59 100 186 198 112 46 65 194 184 29 106 191 115 147 63 54 27 137 7 12 44 175 51 143 30 170 121 31 149 169 155 53 168 173 162 

